Ladder 10
SECTION Graph
Nodes 20
Edges 28
E 1 2 20
E 1 11 36
E 2 3 33
E 2 12 45
E 3 13 42
E 3 14 11
E 4 5 35
E 4 14 8
E 5 6 48
E 5 15 42
E 6 7 17
E 6 16 8
E 7 8 10
E 7 17 7
E 8 9 16
E 8 18 2
E 9 10 22
E 9 19 4
E 10 20 46
E 11 12 3
E 12 13 29
E 13 14 22
E 14 15 20
E 15 16 41
E 16 17 15
E 17 18 27
E 18 19 31
E 19 20 18
END

SECTION Terminals
Terminals 6
T 6
T 7
T 2
T 14
T 8
T 10
END

EOF